letting n =  10
letting blocks =  [[1, 2], [1, 6], [1, 8], [2, 2], [2, 3], [2, 10], [3, 1], [3, 4], [3, 9], [4, 6], [4, 8], [5, 10], [6, 2], [6, 4], [7, 3], [7, 5], [8, 2], [8, 4], [8, 7], [9, 7], [10, 4], [10, 9]]
